Route #1: 1 8 39 45 41 10 22 3 12 1 
Route #2: 1 21 42 17 28 19 43 30 1 
Route #3: 1 1 32 29 37 48 46 35 1 
Route #4: 1 38 13 31 6 44 2 40 20 26 1 
Route #5: 1 5 49 23 1 
Route #6: 1 14 27 33 9 25 24 11 1 
Route #7: 1 16 36 34 7 4 1 
Route #8: 1 15 47 18 1 

Cost 1610.87
Time 0.3819


 * Another infos *

 Iterations: 50 Time: 0.3819 sec - 0.0064 min - 0.0001 horas
0.0000 h 0.0064 min
Problem dimension: 50
